# Solution for model condensation_srl_ilp
# Objective value = 5.4786155368261312e+01
Z_75_0_0 0
Z_75_0_1 0
Z_75_0_2 0
Z_75_0_3 0
Z_75_0_4 1
Z_140_0_0 0
Z_140_0_1 0
Z_140_0_2 0
Z_140_0_3 0
Z_140_0_4 1
Z_298_0_0 0
Z_298_0_1 0
Z_298_0_2 0
Z_298_0_3 1
Z_298_0_4 0
Z_630_1_0 0
Z_630_1_1 0
Z_630_1_2 0
Z_630_1_3 0
Z_630_1_4 1
Z_630_0_0 0
Z_630_0_1 0
Z_630_0_2 1
Z_630_0_3 0
Z_630_0_4 0
Z_630_2_0 0
Z_630_2_1 0
Z_630_2_2 0
Z_630_2_3 1
Z_630_2_4 0
Z_23_0_0 0
Z_23_0_1 0
Z_23_0_2 1
Z_23_0_3 0
Z_23_0_4 0
Z_594_6_0 0
Z_594_6_1 0
Z_594_6_2 0
Z_594_6_3 0
Z_594_6_4 1
Z_594_4_0 0
Z_594_4_1 0
Z_594_4_2 0
Z_594_4_3 0
Z_594_4_4 1
Z_594_2_0 0
Z_594_2_1 0
Z_594_2_2 1
Z_594_2_3 0
Z_594_2_4 0
Z_594_0_0 0
Z_594_0_1 0
Z_594_0_2 0
Z_594_0_3 0
Z_594_0_4 1
Z_594_1_0 0
Z_594_1_1 0
Z_594_1_2 0
Z_594_1_3 0
Z_594_1_4 1
Z_594_3_0 0
Z_594_3_1 0
Z_594_3_2 0
Z_594_3_3 0
Z_594_3_4 1
Z_594_5_0 0
Z_594_5_1 0
Z_594_5_2 0
Z_594_5_3 0
Z_594_5_4 1
Z_691_2_0 0
Z_691_2_1 0
Z_691_2_2 0
Z_691_2_3 0
Z_691_2_4 1
Z_691_1_0 0
Z_691_1_1 0
Z_691_1_2 0
Z_691_1_3 0
Z_691_1_4 1
Z_691_5_0 0
Z_691_5_1 1
Z_691_5_2 0
Z_691_5_3 0
Z_691_5_4 0
Z_691_3_0 0
Z_691_3_1 0
Z_691_3_2 0
Z_691_3_3 0
Z_691_3_4 1
Z_691_4_0 0
Z_691_4_1 0
Z_691_4_2 0
Z_691_4_3 0
Z_691_4_4 1
Z_691_0_0 0
Z_691_0_1 0
Z_691_0_2 0
Z_691_0_3 0
Z_691_0_4 1
Z_292_1_0 0
Z_292_1_1 0
Z_292_1_2 0
Z_292_1_3 0
Z_292_1_4 1
Z_292_0_0 0
Z_292_0_1 0
Z_292_0_2 0
Z_292_0_3 0
Z_292_0_4 1
Z_67_0_0 0
Z_67_0_1 1
Z_67_0_2 0
Z_67_0_3 0
Z_67_0_4 0
Z_469_0_0 0
Z_469_0_1 1
Z_469_0_2 0
Z_469_0_3 0
Z_469_0_4 0
Z_500_0_0 0
Z_500_0_1 1
Z_500_0_2 0
Z_500_0_3 0
Z_500_0_4 0
Z_500_3_0 0
Z_500_3_1 0
Z_500_3_2 0
Z_500_3_3 0
Z_500_3_4 1
Z_500_2_0 0
Z_500_2_1 0
Z_500_2_2 0
Z_500_2_3 0
Z_500_2_4 1
Z_500_4_0 0
Z_500_4_1 0
Z_500_4_2 0
Z_500_4_3 0
Z_500_4_4 1
Z_500_1_0 0
Z_500_1_1 0
Z_500_1_2 0
Z_500_1_3 0
Z_500_1_4 1
Z_500_5_0 0
Z_500_5_1 0
Z_500_5_2 0
Z_500_5_3 0
Z_500_5_4 1
Z_232_0_0 0
Z_232_0_1 1
Z_232_0_2 0
Z_232_0_3 0
Z_232_0_4 0
Z_189_1_0 1
Z_189_1_1 0
Z_189_1_2 0
Z_189_1_3 0
Z_189_1_4 0
Z_189_2_0 0
Z_189_2_1 0
Z_189_2_2 1
Z_189_2_3 0
Z_189_2_4 0
Z_189_0_0 0
Z_189_0_1 0
Z_189_0_2 0
Z_189_0_3 1
Z_189_0_4 0
Z_339_0_0 0
Z_339_0_1 1
Z_339_0_2 0
Z_339_0_3 0
Z_339_0_4 0
Z_339_2_0 0
Z_339_2_1 0
Z_339_2_2 0
Z_339_2_3 0
Z_339_2_4 1
Z_339_1_0 0
Z_339_1_1 0
Z_339_1_2 0
Z_339_1_3 0
Z_339_1_4 1
Z_339_3_0 0
Z_339_3_1 0
Z_339_3_2 0
Z_339_3_3 0
Z_339_3_4 1
Z_316_0_0 0
Z_316_0_1 0
Z_316_0_2 0
Z_316_0_3 0
Z_316_0_4 1
Z_429_0_0 1
Z_429_0_1 0
Z_429_0_2 0
Z_429_0_3 0
Z_429_0_4 0
Z_429_2_0 0
Z_429_2_1 0
Z_429_2_2 0
Z_429_2_3 0
Z_429_2_4 1
Z_429_1_0 0
Z_429_1_1 0
Z_429_1_2 0
Z_429_1_3 0
Z_429_1_4 1
Z_429_5_0 0
Z_429_5_1 0
Z_429_5_2 0
Z_429_5_3 0
Z_429_5_4 1
Z_429_3_0 0
Z_429_3_1 0
Z_429_3_2 0
Z_429_3_3 0
Z_429_3_4 1
Z_429_4_0 0
Z_429_4_1 0
Z_429_4_2 0
Z_429_4_3 0
Z_429_4_4 1
Z_192_2_0 0
Z_192_2_1 0
Z_192_2_2 0
Z_192_2_3 0
Z_192_2_4 1
Z_192_6_0 0
Z_192_6_1 0
Z_192_6_2 0
Z_192_6_3 0
Z_192_6_4 1
Z_192_4_0 0
Z_192_4_1 0
Z_192_4_2 0
Z_192_4_3 0
Z_192_4_4 1
Z_192_3_0 0
Z_192_3_1 0
Z_192_3_2 0
Z_192_3_3 0
Z_192_3_4 1
Z_192_1_0 0
Z_192_1_1 0
Z_192_1_2 0
Z_192_1_3 0
Z_192_1_4 1
Z_192_5_0 0
Z_192_5_1 0
Z_192_5_2 0
Z_192_5_3 0
Z_192_5_4 1
Z_192_0_0 0
Z_192_0_1 1
Z_192_0_2 0
Z_192_0_3 0
Z_192_0_4 0
Z_300_0_0 0
Z_300_0_1 1
Z_300_0_2 0
Z_300_0_3 0
Z_300_0_4 0
Z_139_0_0 0
Z_139_0_1 1
Z_139_0_2 0
Z_139_0_3 0
Z_139_0_4 0
Z_652_0_0 0
Z_652_0_1 1
Z_652_0_2 0
Z_652_0_3 0
Z_652_0_4 0
Z_652_3_0 0
Z_652_3_1 0
Z_652_3_2 0
Z_652_3_3 0
Z_652_3_4 1
Z_652_2_0 0
Z_652_2_1 0
Z_652_2_2 0
Z_652_2_3 0
Z_652_2_4 1
Z_652_6_0 0
Z_652_6_1 0
Z_652_6_2 0
Z_652_6_3 0
Z_652_6_4 1
Z_652_7_0 0
Z_652_7_1 0
Z_652_7_2 0
Z_652_7_3 0
Z_652_7_4 1
Z_652_1_0 0
Z_652_1_1 0
Z_652_1_2 0
Z_652_1_3 0
Z_652_1_4 1
Z_652_8_0 0
Z_652_8_1 0
Z_652_8_2 0
Z_652_8_3 0
Z_652_8_4 1
Z_652_5_0 0
Z_652_5_1 0
Z_652_5_2 0
Z_652_5_3 0
Z_652_5_4 1
Z_652_4_0 0
Z_652_4_1 0
Z_652_4_2 0
Z_652_4_3 0
Z_652_4_4 1
Z_672_0_0 0
Z_672_0_1 1
Z_672_0_2 0
Z_672_0_3 0
Z_672_0_4 0
Z_524_0_0 0
Z_524_0_1 1
Z_524_0_2 0
Z_524_0_3 0
Z_524_0_4 0
Z_128_0_0 0
Z_128_0_1 0
Z_128_0_2 0
Z_128_0_3 0
Z_128_0_4 1
Z_418_0_0 0
Z_418_0_1 1
Z_418_0_2 0
Z_418_0_3 0
Z_418_0_4 0
Z_440_0_0 1
Z_440_0_1 0
Z_440_0_2 0
Z_440_0_3 0
Z_440_0_4 0
Z_440_1_0 0
Z_440_1_1 0
Z_440_1_2 1
Z_440_1_3 0
Z_440_1_4 0
Z_644_1_0 1
Z_644_1_1 0
Z_644_1_2 0
Z_644_1_3 0
Z_644_1_4 0
Z_644_2_0 0
Z_644_2_1 0
Z_644_2_2 1
Z_644_2_3 0
Z_644_2_4 0
Z_644_0_0 0
Z_644_0_1 0
Z_644_0_2 0
Z_644_0_3 1
Z_644_0_4 0
Z_249_0_0 0
Z_249_0_1 0
Z_249_0_2 0
Z_249_0_3 0
Z_249_0_4 1
Z_570_0_0 0
Z_570_0_1 0
Z_570_0_2 0
Z_570_0_3 0
Z_570_0_4 1
Z_237_0_0 0
Z_237_0_1 0
Z_237_0_2 0
Z_237_0_3 0
Z_237_0_4 1
Z_71_0_0 0
Z_71_0_1 0
Z_71_0_2 0
Z_71_0_3 0
Z_71_0_4 1
Z_252_0_0 0
Z_252_0_1 1
Z_252_0_2 0
Z_252_0_3 0
Z_252_0_4 0
